c Random generated cnf formula, satisfiable: false
p cnf 10 50
-6 -1 -8 0
-6 7 -9 0
7 -10 4 0
1 -9 5 0
-6 -8 2 0
1 -7 -8 0
-1 -9 -7 0
1 7 3 0
-3 2 5 0
10 -3 -9 0
-1 8 -4 0
-5 2 8 0
3 -6 2 0
-10 1 3 0
6 9 -2 0
-2 -7 5 0
-1 -2 8 0
-2 6 -4 0
9 4 6 0
-2 -8 5 0
4 7 6 0
-10 5 9 0
-10 8 9 0
7 -5 1 0
-1 8 -4 0
-4 3 -6 0
-8 -6 7 0
9 8 -6 0
7 5 9 0
1 5 -6 0
3 -9 -8 0
5 1 -9 0
3 -2 -5 0
-9 -2 8 0
-8 9 6 0
10 3 -4 0
2 -3 -4 0
2 -7 6 0
8 -3 -9 0
9 2 -3 0
7 -3 -4 0
2 -6 4 0
5 8 -1 0
-3 6 -7 0
-8 10 4 0
-10 4 -2 0
-4 -1 -5 0
3 -7 9 0
6 3 2 0
10 2 5 0
